Ordonnancement/plne/source/petit_instance/2job/2job_10.dat
data;
param nombreJob := 2;
param nombreRessource := 3;
param duree := 1 6 2 6;
param capaciteRessource := 1 5 2 14 3 11;
param besoinRessource : 1 2 3 :=
                    1   3 4 7
                    2   2 3 6;
end;

