Ordonnancement/plne/source/glpk_resultat/2job/2job_10.sol
Problem:    glpsolRcpsp
Rows:       83
Columns:    25 (24 integer, 24 binary)
Non-zeros:  295
Status:     INTEGER OPTIMAL
Objective:  obj = 12 (MINimum)

   No.   Row name        Activity     Lower bound   Upper bound
------ ------------    ------------- ------------- -------------
     1 periode[1]                  6             6             = 
     2 periode[2]                  6             6             = 
     3 complet[1,1]                6                           6 
     4 complet[1,2]                6                           6 
     5 complet[1,3]                6                           6 
     6 complet[1,4]                6                           6 
     7 complet[1,5]                6                           6 
     8 complet[1,6]               -1                           6 
     9 complet[1,7]                4                           6 
    10 complet[1,8]                3                           6 
    11 complet[1,9]                2                           6 
    12 complet[1,10]
                                   1                           6 
    13 complet[2,1]                4                           6 
    14 complet[2,2]                3                           6 
    15 complet[2,3]                2                           6 
    16 complet[2,4]                1                           6 
    17 complet[2,5]                0                           6 
    18 complet[2,6]                6                           6 
    19 complet[2,7]                0                           6 
    20 complet[2,8]                0                           6 
    21 complet[2,9]                0                           6 
    22 complet[2,10]
                                   0                           6 
    23 cmax[1,1]                  12            -0               
    24 cmax[1,2]                  12            -0               
    25 cmax[1,3]                  12            -0               
    26 cmax[1,4]                  12            -0               
    27 cmax[1,5]                  12            -0               
    28 cmax[1,6]                  12            -0               
    29 cmax[1,7]                   5            -0               
    30 cmax[1,8]                   4            -0               
    31 cmax[1,9]                   3            -0               
    32 cmax[1,10]                  2            -0               
    33 cmax[1,11]                  1            -0               
    34 cmax[1,12]                  0            -0               
    35 cmax[2,1]                  11            -0               
    36 cmax[2,2]                  10            -0               
    37 cmax[2,3]                   9            -0               
    38 cmax[2,4]                   8            -0               
    39 cmax[2,5]                   7            -0               
    40 cmax[2,6]                   6            -0               
    41 cmax[2,7]                  12            -0               
    42 cmax[2,8]                  12            -0               
    43 cmax[2,9]                  12            -0               
    44 cmax[2,10]                 12            -0               
    45 cmax[2,11]                 12            -0               
    46 cmax[2,12]                 12            -0               
    47 ressource[1,1]
                                   2                           5 
    48 ressource[1,2]
                                   2                           5 
    49 ressource[1,3]
                                   2                           5 
    50 ressource[1,4]
                                   2                           5 
    51 ressource[1,5]
                                   2                           5 
    52 ressource[1,6]
                                   2                           5 
    53 ressource[1,7]
                                   3                           5 
    54 ressource[1,8]
                                   3                           5 
    55 ressource[1,9]
                                   3                           5 
    56 ressource[1,10]
                                   3                           5 
    57 ressource[1,11]
                                   3                           5 
    58 ressource[1,12]
                                   3                           5 
    59 ressource[2,1]
                                   3                          14 
    60 ressource[2,2]
                                   3                          14 
    61 ressource[2,3]
                                   3                          14 
    62 ressource[2,4]
                                   3                          14 
    63 ressource[2,5]
                                   3                          14 
    64 ressource[2,6]
                                   3                          14 
    65 ressource[2,7]
                                   4                          14 
    66 ressource[2,8]
                                   4                          14 
    67 ressource[2,9]
                                   4                          14 
    68 ressource[2,10]
                                   4                          14 
    69 ressource[2,11]
                                   4                          14 
    70 ressource[2,12]
                                   4                          14 
    71 ressource[3,1]
                                   6                          11 
    72 ressource[3,2]
                                   6                          11 
    73 ressource[3,3]
                                   6                          11 
    74 ressource[3,4]
                                   6                          11 
    75 ressource[3,5]
                                   6                          11 
    76 ressource[3,6]
                                   6                          11 
    77 ressource[3,7]
                                   7                          11 
    78 ressource[3,8]
                                   7                          11 
    79 ressource[3,9]
                                   7                          11 
    80 ressource[3,10]
                                   7                          11 
    81 ressource[3,11]
                                   7                          11 
    82 ressource[3,12]
                                   7                          11 
    83 obj                        12                             

   No. Column name       Activity     Lower bound   Upper bound
------ ------------    ------------- ------------- -------------
     1 x[1,1]       *              0             0             1 
     2 x[1,2]       *              0             0             1 
     3 x[1,3]       *              0             0             1 
     4 x[1,4]       *              0             0             1 
     5 x[1,5]       *              0             0             1 
     6 x[1,6]       *              0             0             1 
     7 x[1,7]       *              1             0             1 
     8 x[1,8]       *              1             0             1 
     9 x[1,9]       *              1             0             1 
    10 x[1,10]      *              1             0             1 
    11 x[1,11]      *              1             0             1 
    12 x[1,12]      *              1             0             1 
    13 x[2,1]       *              1             0             1 
    14 x[2,2]       *              1             0             1 
    15 x[2,3]       *              1             0             1 
    16 x[2,4]       *              1             0             1 
    17 x[2,5]       *              1             0             1 
    18 x[2,6]       *              1             0             1 
    19 x[2,7]       *              0             0             1 
    20 x[2,8]       *              0             0             1 
    21 x[2,9]       *              0             0             1 
    22 x[2,10]      *              0             0             1 
    23 x[2,11]      *              0             0             1 
    24 x[2,12]      *              0             0             1 
    25 z                          12                             

Integer feasibility conditions:

KKT.PE: max.abs.err = 0.00e+00 on row 0
        max.rel.err = 0.00e+00 on row 0
        High quality

KKT.PB: max.abs.err = 0.00e+00 on row 0
        max.rel.err = 0.00e+00 on row 0
        High quality

End of output
